100
1000
378
377
360
355
354
342
331
331
330
327
323
323
320
320
313
311
301
296
295
293
292
286
283
277
276
271
265
264
253
252
233
233
232
232
229
224
221
217
217
212
211
211
207
205
205
203
198
198
197
194
192
191
190
186
178
165
164
163
156
155
152
148
148
147
143
142
134
133
132
130
124
115
113
107
103
91
85
80
79
78
77
68
62
60
60
59
56
55
52
43
42
39
34
33
32
32
32
31
27
26
